c read Graph
c width = 347
c time = 202 ms
c width = 26
c time = 466 ms
c width = 25
c time = 723 ms
c width = 24
c time = 2830 ms
c width = 23
c time = 4617 ms
c width = 23
c time = 4969 ms
s td 290 24 360
b 1 1 2 21
b 2 2 3 21 22
b 3 18 19 39 40
b 4 3 21 22 41
b 5 18 39 40 60
b 6 301 321 322 342
b 7 320 339 340 359
b 8 301 322 342 343
b 9 320 339 358 359
b 10 3 4 5 24
b 11 3 5 23 24 42 61
b 12 5 23 24 42 44 61 63
b 13 5 24 42 44 61 63 82
b 14 5 24 44 61 63 82 101
b 15 5 24 26 44 45 63 82 101
b 16 5 26 44 45 63 65 82 84 101
b 17 5 26 45 63 65 82 84 101 103
b 18 63 82 83 84 103
b 19 5 26 45 65 82 84 101 103 122
b 20 5 26 45 47 65 66 84 101 103 122
b 21 5 26 47 65 66 84 87 101 103 107 122 124 126 145
b 22 65 66 84 87 103 105 107 124 126 145
b 23 84 103 104 105 124
b 24 105 124 125 126 145
b 25 65 66 84 86 87 105 107 126
b 26 86 105 106 107 126
b 27 65 84 85 86 105
b 28 5 26 47 66 68 87 101 103 107 122 124 126 145
b 29 47 66 67 68 87
b 30 5 26 47 68 87 101 103 107 122 124 126 145 164 181 183 202
b 31 101 103 122 124 143 145 164 181 183 202
b 32 101 122 143 162 164 181 183 202
b 33 162 181 182 183 202
b 34 143 162 163 164 183
b 35 101 122 141 143 162 181
b 36 101 121 122 141
b 37 122 141 142 143 162
b 38 141 161 162 181
b 39 124 143 144 145 164
b 40 103 122 123 124 143
b 41 5 9 26 30 47 51 68 72 87 91 107 110 126 128 129 145 164 181 183 202
b 42 5 9 26 30 47 51 68 72 87 89 91 107 110 128 129
b 43 5 9 26 30 47 49 51 68 72 89 91 110
b 44 5 9 26 28 30 47 49 68
b 45 28 47 48 49 68
b 46 9 28 29 30 49
b 47 5 7 9 26 28 47
b 48 7 26 27 28 47
b 49 7 8 9 28
b 50 5 6 7 26
b 51 30 49 51 68 70 72 89 91 110
b 52 30 49 50 51 70
b 53 49 68 69 70 89
b 54 51 70 71 72 91
b 55 70 89 90 91 110
b 56 68 87 89 107 108 110 128 129
b 57 68 87 88 89 108
b 58 89 108 109 110 129
b 59 26 45 46 47 66
b 60 82 101 102 103 122
b 61 44 63 64 65 84
b 62 5 24 25 26 45
b 63 61 81 82 101
b 64 42 61 62 63 82
b 65 23 42 43 44 63
b 66 3 23 41 42 61
b 67 3 22 23 41 42
b 68 9 30 51 72 91 107 110 126 128 129 145 147 164 181 183 202
b 69 9 30 51 72 91 110 126 128 129 145 147 164 166 181 183 202
b 70 9 30 51 72 91 110 128 129 145 147 164 166 181 183 185 202
b 71 9 30 51 72 91 110 128 129 147 164 166 181 183 185 202 206 223 225 244
b 72 9 30 51 72 91 110 128 129 147 166 168 181 183 185 188 202 206 207 223 225 244
b 73 9 30 51 72 91 110 128 129 147 168 181 188 202 206 207 223 225 226 244
b 74 9 30 51 72 91 110 128 129 147 168 181 188 202 207 223 225 226 244 247 268 289 310 331 350
b 75 9 30 51 72 91 110 128 129 147 168 188 207 209 225 226 230 244 247 249 268 289 310 331 350
b 76 9 30 51 72 91 110 128 129 147 168 188 209 230 247 249 251 268 272 289 293 310 312 331 350
b 77 107 126 127 128 147
b 78 9 30 51 72 91 110 128 129 147 150 168 171 188 190 209 230 251 272 293 312 331 350
b 79 9 30 51 72 91 93 110 114 129 133 150 152 171 190 209 230 251 272 293 312 331 350
b 80 9 30 51 72 93 114 133 152 171 173 190 194 209 215 230 236 251 255 272 274 293 312 331 350
b 81 9 30 51 72 93 114 133 152 173 194 215 230 236 251 255 272 274 293 312 331 350
b 82 9 30 51 72 93 114 133 152 173 179 194 198 200 215 217 236 255 274 293 312 331 350
b 83 9 30 51 72 93 114 133 135 152 156 173 177 179 194 198 200 215 217 236
b 84 9 13 30 34 51 55 72 74 93 114 135 156 177 179 198 200
b 85 9 13 30 34 51 53 55 72 74 93
b 86 9 13 30 32 34 51 53 72
b 87 13 32 33 34 53
b 88 9 11 13 30 32 51
b 89 9 10 11 30
b 90 11 30 31 32 51
b 91 11 12 13 32
b 92 32 51 52 53 72
b 93 34 53 54 55 74
b 94 53 72 73 74 93
b 95 13 34 55 74 93 99 114 118 120 135 137 156 177 179 198 200
b 96 99 118 120 137 156 158 177 179 198 200
b 97 158 177 178 179 198
b 98 99 118 120 137 139 158 179 200
b 99 118 137 138 139 158
b 100 99 118 119 120 139
b 101 120 139 158 160 179 200
b 102 160 179 180 200
b 103 139 158 159 160 179
b 104 120 139 140 160
b 105 137 156 157 158 177
b 106 13 34 55 74 76 93 97 99 114 118 120 135 137 156
b 107 13 17 34 36 55 76 97 99 118 120
b 108 13 15 17 34 36 55
b 109 13 14 15 34
b 110 15 34 35 36 55
b 111 15 16 17 36
b 112 17 36 55 76 78 97 99 118 120
b 113 17 36 55 57 76 78 97 99 120
b 114 36 55 56 57 76
b 115 17 36 57 78 80 99 120
b 116 80 99 100 120
b 117 17 36 57 59 78 80 99
b 118 17 36 38 57 59 78 80
b 119 17 38 59 60 80
b 120 17 18 38 59 60
b 121 18 38 39 59 60
b 122 38 57 58 59 78
b 123 17 36 37 38 57
b 124 59 78 79 80 99
b 125 57 76 77 78 97
b 126 78 97 98 99 118
b 127 55 74 76 93 97 114 116 118 135 137 156
b 128 116 135 136 137 156
b 129 55 74 76 93 95 97 114 116 135
b 130 76 95 96 97 116
b 131 74 93 94 95 114
b 132 55 74 75 76 95
b 133 95 114 115 116 135
b 134 97 116 117 118 137
b 135 114 133 135 152 156 173 175 177 194 198 215 217 236
b 136 156 175 177 194 196 198 215 217 236
b 137 196 215 216 217 236
b 138 175 194 195 196 215
b 139 156 175 176 177 196
b 140 177 196 197 198 217
b 141 114 133 135 152 154 156 173 175 194
b 142 135 154 155 156 175
b 143 154 173 174 175 194
b 144 133 152 153 154 173
b 145 114 133 134 135 154
b 146 179 198 200 217 236 255 274 293 312 314 331 335 350 354
b 147 293 312 314 331 333 335 350 354
b 148 293 312 313 314 333
b 149 312 331 333 350 352 354
b 150 333 352 353 354
b 151 312 331 332 333 352
b 152 331 350 351 352
b 153 314 333 334 335 354
b 154 179 198 200 217 236 238 255 259 274 280 293 314 335 354
b 155 179 198 200 217 219 238 259 280
b 156 198 217 218 219 238
b 157 200 219 238 240 259 280
b 158 219 238 239 240 259
b 159 200 219 220 240
b 160 240 259 260 280
b 161 179 198 199 200 219
b 162 217 236 238 255 257 259 274 280 293 314 335 354
b 163 217 236 237 238 257
b 164 236 238 255 257 259 274 276 280 293 314 335 354
b 165 238 255 257 259 274 276 280 293 295 314 335 354
b 166 274 293 294 295 314
b 167 255 274 275 276 295
b 168 238 257 259 276 280 295 314 316 335 354
b 169 295 314 315 316 335
b 170 238 257 259 276 280 295 297 316 335 354
b 171 276 295 296 297 316
b 172 238 257 259 276 278 280 297 316 335 354
b 173 257 276 277 278 297
b 174 259 278 280 297 316 335 354 356
b 175 259 278 280 297 316 335 337 356
b 176 316 335 336 337 356
b 177 259 278 280 297 299 316 337 356
b 178 278 280 297 299 316 318 337 356
b 179 278 297 298 299 318
b 180 297 316 317 318 337
b 181 280 299 318 337 356 358
b 182 280 299 318 337 338 358
b 183 280 299 318 320 338 358
b 184 280 299 300 320
b 185 299 318 319 320 338 358
b 186 319 320 338 339 358
b 187 337 356 357 358
b 188 259 278 279 280 299
b 189 335 354 355 356
b 190 238 257 258 259 278
b 191 236 255 256 257 276
b 192 152 171 173 190 194 209 213 215 230 232 236 251 255 272 274 293
b 193 194 213 215 232 236 251 253 255 272 274 293
b 194 253 272 273 274 293
b 195 232 251 252 253 272
b 196 194 213 215 232 234 236 253 255 274
b 197 194 213 214 215 234
b 198 234 253 254 255 274
b 199 213 232 233 234 253
b 200 215 234 235 236 255
b 201 152 171 173 190 194 209 211 213 230 232 251
b 202 211 230 231 232 251
b 203 190 209 210 211 230
b 204 152 171 173 190 192 194 211 213 232
b 205 192 211 212 213 232
b 206 171 190 191 192 211
b 207 152 171 172 173 192
b 208 173 192 193 194 213
b 209 72 91 93 110 114 129 131 133 150 152 171
b 210 131 150 151 152 171
b 211 72 91 93 110 112 114 131 133 152
b 212 72 91 92 93 112
b 213 91 110 111 112 131
b 214 93 112 113 114 133
b 215 112 131 132 133 152
b 216 110 129 130 131 150
b 217 128 129 147 150 168 169 171 188 190 209
b 218 169 188 189 190 209
b 219 128 129 147 149 150 168 169
b 220 128 147 148 149 168
b 221 150 169 170 171 190
b 222 188 207 209 226 228 230 247 249 268
b 223 188 207 208 209 228
b 224 209 228 229 230 249
b 225 228 247 248 249 268
b 226 207 226 227 228 247
b 227 230 249 251 268 270 272 289 293 310 312 331
b 228 230 249 250 251 270
b 229 251 270 272 289 291 293 310 312 331
b 230 272 291 292 293 312
b 231 270 289 290 291 310
b 232 291 310 311 312 331
b 233 251 270 271 272 291
b 234 249 268 269 270 289
b 235 181 202 223 225 226 244 247 268 287 289 306 310 327 331 346 350
b 236 268 287 289 306 308 310 327 331 346 350
b 237 287 306 307 308 327
b 238 268 287 288 289 308
b 239 289 308 310 327 329 331 346 350
b 240 310 329 330 331 350
b 241 289 308 309 310 329
b 242 308 327 329 346 348 350
b 243 329 348 349 350
b 244 327 346 347 348
b 245 308 327 328 329 348
b 246 181 202 223 225 226 244 247 264 268 285 287 306 327 346
b 247 225 226 244 247 264 266 268 285 287 306
b 248 247 266 267 268 287
b 249 266 285 286 287 306
b 250 225 226 244 245 247 264 266 285
b 251 245 264 265 266 285
b 252 226 245 246 247 266
b 253 181 202 223 242 244 261 264 285 306 327 346
b 254 181 202 221 223 242 261
b 255 181 201 202 221
b 256 221 241 242 261
b 257 202 221 222 223 242
b 258 223 242 244 261 263 264 285 306 327 346
b 259 223 242 243 244 263
b 260 242 261 263 264 285 306 325 327 346
b 261 242 261 263 264 285 304 306 325 346
b 262 242 261 263 264 283 285 304 325 346
b 263 264 283 284 285 304
b 264 242 261 263 282 283 304 325 346
b 265 242 261 262 263 282
b 266 261 282 283 304 325 344 346
b 267 325 344 345 346
b 268 261 282 283 304 323 325 344
b 269 261 282 283 302 304 323 344
b 270 283 302 303 304 323
b 271 261 282 301 302 323 344
b 272 261 281 282 301
b 273 301 302 323 343 344
b 274 301 302 322 323 343
b 275 304 323 324 325 344
b 276 285 304 305 306 325
b 277 306 325 326 327 346
b 278 126 145 146 147 166
b 279 147 166 168 185 187 188 206 207
b 280 147 166 167 168 187
b 281 166 185 186 187 206
b 282 145 164 165 166 185
b 283 164 183 185 202 204 206 223 225 244
b 284 204 223 224 225 244
b 285 183 202 203 204 223
b 286 164 183 184 185 204
b 287 185 204 205 206 225
b 288 340 359 360
b 289 321 341 342
b 290 19 20 40
1 2
2 4
3 290
3 5
4 67
5 121
6 289
6 8
7 288
7 9
8 274
9 186
10 11
11 66
11 12
12 65
12 13
13 64
13 14
14 63
14 15
15 62
15 16
16 61
16 17
17 19
17 18
19 60
19 20
20 59
20 21
21 28
21 22
22 24
22 25
22 23
25 27
25 26
28 30
28 29
30 41
30 31
31 32
31 39
31 40
32 34
32 35
32 33
35 36
35 38
35 37
41 68
41 42
42 56
42 43
43 44
43 51
44 46
44 47
44 45
47 50
47 49
47 48
51 52
51 53
51 54
51 55
56 58
56 57
66 67
68 77
68 69
69 278
69 70
70 282
70 71
71 283
71 72
72 279
72 73
73 74
74 235
74 75
75 222
75 76
76 78
76 227
78 217
78 79
79 209
79 80
80 82
80 192
80 81
82 83
82 146
83 135
83 84
84 85
84 95
85 93
85 94
85 86
86 87
86 92
86 88
88 89
88 91
88 90
95 96
95 106
96 105
96 97
96 98
98 100
98 99
98 101
101 104
101 102
101 103
106 107
106 127
107 108
107 112
108 109
108 111
108 110
112 126
112 113
113 114
113 125
113 115
115 116
115 117
117 124
117 118
118 119
118 123
118 122
119 120
120 121
127 134
127 128
127 129
129 132
129 131
129 130
129 133
135 141
135 136
136 139
136 138
136 140
136 137
141 145
141 144
141 142
141 143
146 147
146 154
147 153
147 148
147 149
149 152
149 150
149 151
154 155
154 162
155 161
155 156
155 157
157 159
157 160
157 158
162 163
162 164
164 191
164 165
165 167
165 166
165 168
168 169
168 170
170 171
170 172
172 190
172 173
172 174
174 189
174 175
175 176
175 177
177 188
177 178
178 179
178 181
178 180
181 187
181 182
182 183
183 184
183 185
185 186
192 201
192 193
193 194
193 195
193 196
196 197
196 200
196 198
196 199
201 202
201 203
201 204
204 207
204 208
204 205
204 206
209 210
209 211
209 216
211 212
211 213
211 214
211 215
217 218
217 219
217 221
219 220
222 224
222 225
222 226
222 223
227 228
227 229
227 234
229 230
229 233
229 232
229 231
235 236
235 246
236 237
236 238
236 239
239 240
239 241
239 242
242 244
242 243
242 245
246 247
246 253
247 248
247 249
247 250
250 252
250 251
253 254
253 258
254 255
254 256
254 257
258 259
258 260
260 277
260 261
261 276
261 262
262 263
262 264
264 265
264 266
266 267
266 268
268 275
268 269
269 270
269 271
271 272
271 273
273 274
279 280
279 281
283 285
283 286
283 287
283 284
